\ Model x1_copy
\ LP format - for model browsing. Use MPS format to capture full model detail.
\ Signature: 0x3660a7bed94d7776
Minimize
 
Subject To
 c_e_x2480_: x1633 = 0
 c_e_x2481_: x1641 = 0
 c_e_x2482_: x1649 = 0
 c_e_x2483_: x1657 = 0
 c_e_x2484_: x1665 = 0
 c_e_x2485_: x1673 = 0
 c_e_x2486_: x1681 = 0
 c_e_x2487_: x1689 = 0
 c_e_x2488_: x1697 = 0
 c_e_x2489_: x1705 = 0
 c_e_x2490_: x1713 = 0
 c_e_x2491_: x1721 = 0
 c_e_x2492_: x1729 = 0
 c_e_x2493_: x1737 = 0
 c_e_x2494_: x1745 = 0
 c_e_x2495_: x1753 = 0
 c_u_x2586_: - x1633 - x1641 - x1649 - x1657 - x1665 - x1673 - x1681
   - x1689 - x1697 - x1705 - x1713 - x1721 - x1729 - x1737 - x1745 - x1753
   - x1761 - x1769 - x1777 - x1785 - x1793 - x1801 - x1809 - x1817 - x1825
   - x1833 - x1841 - x1849 - x1857 - x1865 - x1873 - x1881 - x1889 - x1897
   - x1905 - x1913 - x1921 - x1929 - x1937 - x1945 - x1953 - x1961 - x1969
   - x1977 - x1985 - x1993 - x2001 - x2009 - x2017 - x2025 - x2033 - x2041
   - x2049 - x2057 - x2065 - x2073 - x2081 - x2089 - x2097 - x2105 - x2113
   - x2121 - x2129 - x2137 - x2145 - x2153 - x2161 - x2169 - x2177 - x2185
   - x2193 - x2201 - x2209 - x2217 - x2225 - x2233 - x2241 - x2249 - x2257
   - x2265 - x2273 - x2281 - x2289 - x2297 - x2305 - x2313 - x2321 - x2329
   - x2337 - x2345 - x2353 - x2361 - x2369 - x2377 - x2385 - x2393 - x2401
   - x2409 - x2417 - x2425 - x2433 - x2441 - x2449 - x2457 - x2465 - x2473
   <= -91
Bounds
Binaries
 x1633 x1641 x1649 x1657 x1665 x1673 x1681 x1689 x1697 x1705 x1713 x1721
 x1729 x1737 x1745 x1753 x1761 x1769 x1777 x1785 x1793 x1801 x1809 x1817
 x1825 x1833 x1841 x1849 x1857 x1865 x1873 x1881 x1889 x1897 x1905 x1913
 x1921 x1929 x1937 x1945 x1953 x1961 x1969 x1977 x1985 x1993 x2001 x2009
 x2017 x2025 x2033 x2041 x2049 x2057 x2065 x2073 x2081 x2089 x2097 x2105
 x2113 x2121 x2129 x2137 x2145 x2153 x2161 x2169 x2177 x2185 x2193 x2201
 x2209 x2217 x2225 x2233 x2241 x2249 x2257 x2265 x2273 x2281 x2289 x2297
 x2305 x2313 x2321 x2329 x2337 x2345 x2353 x2361 x2369 x2377 x2385 x2393
 x2401 x2409 x2417 x2425 x2433 x2441 x2449 x2457 x2465 x2473
End
